solution/p_4_2.txt_600.row.log
CPXPARAM_TimeLimit                               600
CPXPARAM_WorkMem                                 4096
CPXPARAM_Threads                                 1
Found incumbent of value 0,000000 after 0,00 sec. (0,00 ticks)
Tried aggregator 2 times.
MIP Presolve eliminated 7 rows and 26 columns.
MIP Presolve modified 29 coefficients.
Aggregator did 2 substitutions.
Reduced MIP has 3 rows, 4 columns, and 7 nonzeros.
Reduced MIP has 4 binaries, 0 generals, 0 SOSs, and 0 indicators.
Presolve time = 0,00 sec. (0,06 ticks)
Probing time = 0,00 sec. (0,00 ticks)
Tried aggregator 1 time.
MIP Presolve eliminated 5 rows and 4 columns.
MIP Presolve added 2 rows and 0 columns.
MIP Presolve modified 3 coefficients.
All rows and columns eliminated.
Presolve time = 0,00 sec. (0,01 ticks)

Root node processing (before b&c):
  Real time             =    0,00 sec. (0,08 ticks)
Sequential b&c:
  Real time             =    0,00 sec. (0,00 ticks)
                          ------------
Total (root+branch&cut) =    0,00 sec. (0,08 ticks)
